 C  N Pt 
 1.0000000000000000
     7.3799999999999999    0.0000000000000000    0.0000000000000000
    -3.6899999999999999    6.3912670000000000    0.0000000000000000
     0.0000000000000000    0.0000000000000000   25.0000000000000000
 C  N Pt 
 16   1   1
Cartesian
  6.1408060820999992  0.8041720307631900 12.3736482499999987
 -0.0030700800000000  1.5083675170508200 12.5118824999999987
  1.2375459638999999  0.8252252477372101 12.4302080000000004
  2.4826939181999998  1.5430677507992598 12.2797882499999993
  3.6931017033000000  0.8143528077928299 12.3582877499999988
  4.9274362970999999  1.5047162501263900 12.3359614999999998
  4.9081400693999999  2.9188585321369400 12.3582802500000000
 -1.2581816246999999  3.6459962382731099 12.5471807500000008
 -0.1244472795000002  2.8761677446470904 12.8236674999999991
  3.6718469342999995  3.6027561213846102 12.2797870000000007
  3.6709504856999997  5.0400054540196297 12.4302132499999995
 -2.4598562498999996  5.7697754034697502 12.4186409999999992
 -1.2445182927000000  5.0680946890086105 12.4936259999999990
 -0.0197739720000003  5.7909769617508404 12.5471914999999985
  1.2137843934000001  5.1940539707826199 12.8236884999999994
  2.4590218671000001  5.7728265943355499 12.5118952499999985
  2.5159340654999998  2.8969952220706698 12.0663847500000010
  1.2779699877000001  3.6117299715539701 13.9096677499999988
