NumberOfAtoms    140           # Number of atoms
NumberOfSpecies  2           # Number of species

%block ChemicalSpeciesLabel
 1 79 Au
 2 6 C
%endblock ChemicalSpeciesLabel

#(3) Lattice, coordinates, k-sampling

LatticeConstant       1.000000000 Ang
%block LatticeVectors
    8.472000000     0.000000000     0.000000000
    0.000000000     9.782620000     0.000000000
    0.000000000     0.000000000    49.982996701
%endblock LatticeVectors

AtomicCoordinatesFormat Ang
%block AtomicCoordinatesAndAtomicSpecies
     2.118000000     2.038046000    10.000000000    1    1
     0.706000000     4.483702000    10.000000000    1    2
     4.942000000     2.038046000    10.000000000    1    3
     3.530000000     4.483702000    10.000000000    1    4
     7.766000000     2.038046000    10.000000000    1    5
     6.354000000     4.483702000    10.000000000    1    6
     2.118000000     6.929358000    10.000000000    1    7
     0.706000000     9.375014000    10.000000000    1    8
     4.942000000     6.929358000    10.000000000    1    9
     3.530000000     9.375014000    10.000000000    1   10
     7.766000000     6.929358000    10.000000000    1   11
     6.354000000     9.375014000    10.000000000    1   12
     2.118000000     0.407609000    12.305786000    1   13
     0.706000000     2.853265000    12.305786000    1   14
     4.942000000     0.407609000    12.305786000    1   15
     3.530000000     2.853265000    12.305786000    1   16
     7.766000000     0.407609000    12.305786000    1   17
     6.354000000     2.853265000    12.305786000    1   18
     2.118000000     5.298921000    12.305786000    1   19
     0.706000000     7.744577000    12.305786000    1   20
     4.942000000     5.298921000    12.305786000    1   21
     3.530000000     7.744577000    12.305786000    1   22
     7.766000000     5.298921000    12.305786000    1   23
     6.354000000     7.744577000    12.305786000    1   24
     0.706000000     1.222828000    14.611572000    1   25
     2.118000000     3.668484000    14.611572000    1   26
     3.530000000     1.222828000    14.611572000    1   27
     4.942000000     3.668484000    14.611572000    1   28
     6.354000000     1.222828000    14.611572000    1   29
     7.766000000     3.668484000    14.611572000    1   30
     0.706000000     6.114139000    14.611572000    1   31
     2.118000000     8.559795000    14.611572000    1   32
     3.530000000     6.114139000    14.611572000    1   33
     4.942000000     8.559795000    14.611572000    1   34
     6.354000000     6.114139000    14.611572000    1   35
     7.766000000     8.559795000    14.611572000    1   36
     2.118000000     2.038046000    16.917359000    1   37
     0.706000000     4.483702000    16.917359000    1   38
     4.942000000     2.038046000    16.917359000    1   39
     3.530000000     4.483702000    16.917359000    1   40
     7.766000000     2.038046000    16.917359000    1   41
     6.354000000     4.483702000    16.917359000    1   42
     2.118000000     6.929358000    16.917359000    1   43
     0.706000000     9.375014000    16.917359000    1   44
     4.942000000     6.929358000    16.917359000    1   45
     3.530000000     9.375014000    16.917359000    1   46
     7.766000000     6.929358000    16.917359000    1   47
     6.354000000     9.375014000    16.917359000    1   48
     0.706000000     5.000000000    18.877359000    2   49
     4.942000000     5.000000000    18.877359000    2   50
     2.118000000     5.000000000    18.877359000    2   51
     6.354000000     5.000000000    18.877359000    2   52
     7.060000000     5.000000000    20.100186870    2   53
     2.824000000     5.000000000    20.100186870    2   54
     0.000000000     5.000000000    20.100186870    2   55
     4.236000000     5.000000000    20.100186870    2   56
     0.706000000     5.000000000    21.323014740    2   57
     4.942000000     5.000000000    21.323014740    2   58
     2.118000000     5.000000000    21.323014740    2   59
     6.354000000     5.000000000    21.323014740    2   60
     7.060000000     5.000000000    22.545842610    2   61
     2.824000000     5.000000000    22.545842610    2   62
     0.000000000     5.000000000    22.545842610    2   63
     4.236000000     5.000000000    22.545842610    2   64
     0.706000000     5.000000000    23.768670481    2   65
     4.942000000     5.000000000    23.768670481    2   66
     2.118000000     5.000000000    23.768670481    2   67
     6.354000000     5.000000000    23.768670481    2   68
     7.060000000     5.000000000    24.991498351    2   69
     2.824000000     5.000000000    24.991498351    2   70
     0.000000000     5.000000000    24.991498351    2   71
     4.236000000     5.000000000    24.991498351    2   72
     0.706000000     5.000000000    26.214326221    2   73
     4.942000000     5.000000000    26.214326221    2   74
     2.118000000     5.000000000    26.214326221    2   75
     6.354000000     5.000000000    26.214326221    2   76
     7.060000000     5.000000000    27.437154091    2   77
     2.824000000     5.000000000    27.437154091    2   78
     0.000000000     5.000000000    27.437154091    2   79
     4.236000000     5.000000000    27.437154091    2   80
     0.706000000     5.000000000    28.659981961    2   81
     4.942000000     5.000000000    28.659981961    2   82
     2.118000000     5.000000000    28.659981961    2   83
     6.354000000     5.000000000    28.659981961    2   84
     7.060000000     5.000000000    29.882809831    2   85
     2.824000000     5.000000000    29.882809831    2   86
     0.000000000     5.000000000    29.882809831    2   87
     4.236000000     5.000000000    29.882809831    2   88
     0.706000000     5.000000000    31.105637701    2   89
     4.942000000     5.000000000    31.105637701    2   90
     2.118000000     5.000000000    31.105637701    2   91
     6.354000000     5.000000000    31.105637701    2   92
     2.118000000     2.038046000    33.065637701    1   93
     0.706000000     4.483702000    33.065637701    1   94
     4.942000000     2.038046000    33.065637701    1   95
     3.530000000     4.483702000    33.065637701    1   96
     7.766000000     2.038046000    33.065637701    1   97
     6.354000000     4.483702000    33.065637701    1   98
     2.118000000     6.929358000    33.065637701    1   99
     0.706000000     9.375014000    33.065637701    1  100
     4.942000000     6.929358000    33.065637701    1  101
     3.530000000     9.375014000    33.065637701    1  102
     7.766000000     6.929358000    33.065637701    1  103
     6.354000000     9.375014000    33.065637701    1  104
     0.706000000     1.222828000    35.371424701    1  105
     2.118000000     3.668484000    35.371424701    1  106
     3.530000000     1.222828000    35.371424701    1  107
     4.942000000     3.668484000    35.371424701    1  108
     6.354000000     1.222828000    35.371424701    1  109
     7.766000000     3.668484000    35.371424701    1  110
     0.706000000     6.114139000    35.371424701    1  111
     2.118000000     8.559795000    35.371424701    1  112
     3.530000000     6.114139000    35.371424701    1  113
     4.942000000     8.559795000    35.371424701    1  114
     6.354000000     6.114139000    35.371424701    1  115
     7.766000000     8.559795000    35.371424701    1  116
     2.118000000     0.407609000    37.677210701    1  117
     0.706000000     2.853265000    37.677210701    1  118
     4.942000000     0.407609000    37.677210701    1  119
     3.530000000     2.853265000    37.677210701    1  120
     7.766000000     0.407609000    37.677210701    1  121
     6.354000000     2.853265000    37.677210701    1  122
     2.118000000     5.298921000    37.677210701    1  123
     0.706000000     7.744577000    37.677210701    1  124
     4.942000000     5.298921000    37.677210701    1  125
     3.530000000     7.744577000    37.677210701    1  126
     7.766000000     5.298921000    37.677210701    1  127
     6.354000000     7.744577000    37.677210701    1  128
     2.118000000     2.038046000    39.982996701    1  129
     0.706000000     4.483702000    39.982996701    1  130
     4.942000000     2.038046000    39.982996701    1  131
     3.530000000     4.483702000    39.982996701    1  132
     7.766000000     2.038046000    39.982996701    1  133
     6.354000000     4.483702000    39.982996701    1  134
     2.118000000     6.929358000    39.982996701    1  135
     0.706000000     9.375014000    39.982996701    1  136
     4.942000000     6.929358000    39.982996701    1  137
     3.530000000     9.375014000    39.982996701    1  138
     7.766000000     6.929358000    39.982996701    1  139
     6.354000000     9.375014000    39.982996701    1  140
%endblock AtomicCoordinatesAndAtomicSpecies
