 C  N                                   
   1.00000000000000     
    14.7971964117922141    0.0000000000000000    0.0000000000000000
     0.0000000000000000   12.8147479973999978    0.0000000000000000
     0.0000000000000000    0.0000000000000000   25.0000000000000000
   C    N 
    68     3
Direct
  0.0000000028542762 -0.0009276866150812  0.4999999869483561
  0.0000000020767183  0.1103086559179728  0.4999999873922574
  0.0830409494493538  0.1661088175488431  0.4999999887166695
  0.0831860775138888  0.2773231215738459  0.4999999878606633
  0.0000000024779860  0.3328735628843804  0.4999999854124056
  0.0000000032971153  0.4439087406291150  0.4999999872215130
  0.0839960449551748  0.4991964343948846  0.4999999849948385
  0.0836155478557227  0.6102952468798851  0.4999999850069486
  0.0000000039897488  0.6655049535068763  0.4999999874362772
  0.0000000037236345  0.7767093142689121  0.4999999886522448
  0.0833630051591552  0.8322018113626123  0.4999999860413948
  0.0832164917881496  0.9433844506855765  0.4999999893360352
  0.1662814717537953 -0.0006246493106332  0.4999999902426587
  0.1658686225021720  0.1102967912835638  0.4999999934136542
  0.2489933994057054  0.1661453043084725  0.4999999940627251
  0.2491773733300173  0.2768706470651531  0.4999999919588066
  0.1665011617597443  0.3329183053228618  0.4999999874714665
  0.1677136509167779  0.4438461215307047  0.4999999861875104
  0.2527921510704825  0.4982827408071215  0.4999999844281381
  0.2510668927447740  0.6103822389964750  0.4999999814392501
  0.1673678481807337  0.6655389551291483  0.4999999807819346
  0.1669382864661446  0.7768774077213857  0.4999999833366005
  0.2499456892447241  0.8333038418507180  0.4999999823361217
  0.2497558426927058  0.9443079032924298  0.4999999886768208
  0.3328871835536984  0.0004454464999173  0.4999999904317366
  0.3321249163253407  0.1111770878965408  0.4999999954806270
  0.4140360217336235  0.1707033973454733  0.4999999925440843
  0.3346178169548222  0.3292852583953703  0.4999999891310961
  0.3364250848943716  0.4427332650415818  0.4999999855744389
  0.4206292942736860  0.5013516289884417  0.4999999846283832
  0.4170855341550068  0.6130320605070416  0.4999999862226557
  0.3336420904770570  0.6675201103589097  0.4999999816066067
  0.3335670273146797  0.7788235276528817  0.4999999817065007
  0.4168220341552876  0.8354237519370092  0.4999999845183113
  0.4167997848430549  0.9466500718391379  0.4999999870248413
  0.5000000025458966  0.0044982228623561  0.4999999858580102
  0.5000000020364117  0.1158977014561287  0.4999999890363230
  0.5859639817078965  0.1707034000706513  0.4999999853546758
  0.5793707140723614  0.5013516314568132  0.4999999893432823
  0.5829144743688764  0.6130320627413403  0.4999999928920696
  0.5000000039116814  0.6689077024202817  0.4999999895890078
  0.5000000037658756  0.7799402775575038  0.4999999885170398
  0.5831779726787221  0.8354237534013670  0.4999999870448726
  0.5832002207896803  0.9466500733663291  0.4999999844936089
  0.6671128213280780  0.0004454494191011  0.4999999790607152
  0.6678750875748519  0.1111770909504364  0.4999999785754574
  0.7510066046048316  0.1661453072081699  0.4999999794266627
  0.7508226314422186  0.2768706499268405  0.4999999872958435
  0.6653821881142722  0.3292852616373543  0.4999999925153744
  0.6635749228584822  0.4427332684158807  0.4999999934027383
  0.7472078567820023  0.4982827440063184  0.4999999939595975
  0.7489331154679890  0.6103822420256362  0.4999999960588267
  0.6663579178032734  0.6675201131049445  0.4999999928271426
  0.6664329801447396  0.7788235303073554  0.4999999882880051
  0.7500543178551620  0.8333038447404103  0.4999999850972333
  0.7502439405109639  0.9443070467749408  0.5000008803101783
  0.8337185335948134 -0.0006246470845872  0.4999999806657494
  0.8341313818415008  0.1102967934952650  0.4999999805937124
  0.9169590549325599  0.1661088187136107  0.4999999830639038
  0.9168139270240904  0.2773231228243004  0.4999999857485716
  0.8334988432296165  0.3329183074211063  0.4999999870457912
  0.8322863561662119  0.4438461238634662  0.4999999919873359
  0.9160039624164997  0.4991964359394516  0.4999999890657640
  0.9163844601995926  0.6102952482970144  0.4999999919678186
  0.8326321600353579  0.6655389576936068  0.4999999935960863
  0.8330617208754729  0.7768774103459929  0.4999999905318285
  0.9166370019782354  0.8322018124409104  0.4999999878323205
  0.9167835138316797  0.9433844521517302  0.4999999862326742
  0.4118572976256169  0.2750655686499166  0.4999999897465736
  0.5881427072580685  0.2750655716055251  0.4999999921872181
  0.5000000047370866  0.4513126789576865  0.4999999825634142
 
  0.00000000E+00  0.00000000E+00  0.00000000E+00
  0.00000000E+00  0.00000000E+00  0.00000000E+00
  0.00000000E+00  0.00000000E+00  0.00000000E+00
  0.00000000E+00  0.00000000E+00  0.00000000E+00
  0.00000000E+00  0.00000000E+00  0.00000000E+00
  0.00000000E+00  0.00000000E+00  0.00000000E+00
  0.00000000E+00  0.00000000E+00  0.00000000E+00
  0.00000000E+00  0.00000000E+00  0.00000000E+00
  0.00000000E+00  0.00000000E+00  0.00000000E+00
  0.00000000E+00  0.00000000E+00  0.00000000E+00
  0.00000000E+00  0.00000000E+00  0.00000000E+00
  0.00000000E+00  0.00000000E+00  0.00000000E+00
  0.00000000E+00  0.00000000E+00  0.00000000E+00
  0.00000000E+00  0.00000000E+00  0.00000000E+00
  0.00000000E+00  0.00000000E+00  0.00000000E+00
  0.00000000E+00  0.00000000E+00  0.00000000E+00
  0.00000000E+00  0.00000000E+00  0.00000000E+00
  0.00000000E+00  0.00000000E+00  0.00000000E+00
  0.00000000E+00  0.00000000E+00  0.00000000E+00
  0.00000000E+00  0.00000000E+00  0.00000000E+00
  0.00000000E+00  0.00000000E+00  0.00000000E+00
  0.00000000E+00  0.00000000E+00  0.00000000E+00
  0.00000000E+00  0.00000000E+00  0.00000000E+00
  0.00000000E+00  0.00000000E+00  0.00000000E+00
  0.00000000E+00  0.00000000E+00  0.00000000E+00
  0.00000000E+00  0.00000000E+00  0.00000000E+00
  0.00000000E+00  0.00000000E+00  0.00000000E+00
  0.00000000E+00  0.00000000E+00  0.00000000E+00
  0.00000000E+00  0.00000000E+00  0.00000000E+00
  0.00000000E+00  0.00000000E+00  0.00000000E+00
  0.00000000E+00  0.00000000E+00  0.00000000E+00
  0.00000000E+00  0.00000000E+00  0.00000000E+00
  0.00000000E+00  0.00000000E+00  0.00000000E+00
  0.00000000E+00  0.00000000E+00  0.00000000E+00
  0.00000000E+00  0.00000000E+00  0.00000000E+00
  0.00000000E+00  0.00000000E+00  0.00000000E+00
  0.00000000E+00  0.00000000E+00  0.00000000E+00
  0.00000000E+00  0.00000000E+00  0.00000000E+00
  0.00000000E+00  0.00000000E+00  0.00000000E+00
  0.00000000E+00  0.00000000E+00  0.00000000E+00
  0.00000000E+00  0.00000000E+00  0.00000000E+00
  0.00000000E+00  0.00000000E+00  0.00000000E+00
  0.00000000E+00  0.00000000E+00  0.00000000E+00
  0.00000000E+00  0.00000000E+00  0.00000000E+00
  0.00000000E+00  0.00000000E+00  0.00000000E+00
  0.00000000E+00  0.00000000E+00  0.00000000E+00
  0.00000000E+00  0.00000000E+00  0.00000000E+00
  0.00000000E+00  0.00000000E+00  0.00000000E+00
  0.00000000E+00  0.00000000E+00  0.00000000E+00
  0.00000000E+00  0.00000000E+00  0.00000000E+00
  0.00000000E+00  0.00000000E+00  0.00000000E+00
  0.00000000E+00  0.00000000E+00  0.00000000E+00
  0.00000000E+00  0.00000000E+00  0.00000000E+00
  0.00000000E+00  0.00000000E+00  0.00000000E+00
  0.00000000E+00  0.00000000E+00  0.00000000E+00
  0.00000000E+00  0.00000000E+00  0.00000000E+00
  0.00000000E+00  0.00000000E+00  0.00000000E+00
  0.00000000E+00  0.00000000E+00  0.00000000E+00
  0.00000000E+00  0.00000000E+00  0.00000000E+00
  0.00000000E+00  0.00000000E+00  0.00000000E+00
  0.00000000E+00  0.00000000E+00  0.00000000E+00
  0.00000000E+00  0.00000000E+00  0.00000000E+00
  0.00000000E+00  0.00000000E+00  0.00000000E+00
  0.00000000E+00  0.00000000E+00  0.00000000E+00
  0.00000000E+00  0.00000000E+00  0.00000000E+00
  0.00000000E+00  0.00000000E+00  0.00000000E+00
  0.00000000E+00  0.00000000E+00  0.00000000E+00
  0.00000000E+00  0.00000000E+00  0.00000000E+00
  0.00000000E+00  0.00000000E+00  0.00000000E+00
  0.00000000E+00  0.00000000E+00  0.00000000E+00
  0.00000000E+00  0.00000000E+00  0.00000000E+00
