 C  N  C  N  C  N  C                    
   1.00000000000000     
    14.7971964117922141    0.0000000000000000    0.0000000000000000
     0.0000000000000000   12.8147479973999978    0.0000000000000000
     0.0000000000000000    0.0000000000000000   25.0000000000000000
   C    N    C    N    C    N    C 
    27     1     2     1     8     2    29
Direct
  0.0000000000230670 -0.0001099466679743  0.4999999994021843
  0.0000000001461803  0.1108012724519345  0.5000000002390033
  0.0832219441273104  0.1663566402149320  0.5000000003515659
  0.0832331071940355  0.2777488418222305  0.5000000009218353
  0.0000000000775845  0.3333428259951590  0.4999999993495025
  0.0000000000422755  0.4442591414426080  0.5000000005632133
  0.0832294404748736  0.4998691019558696  0.4999999995737355
  0.0832231433243064  0.6112655695338750  0.5000000015686880
 -0.0000000001015619  0.6668086315355690  0.4999999993306991
 -0.0000000001081338  0.7777114714812543  0.4999999997855500
  0.0833735768267544  0.8332800262678850  0.4999999991677126
  0.0833748862576227  0.9443300623993228  0.5000000008227785
  0.1665775351340244 -0.0001974414292424  0.5000000003849109
  0.1660783854342504  0.1108276534579352  0.5000000030731390
  0.2493642267072783  0.1667940156197091  0.5000000029875948
  0.2492928932818168  0.2777211851366803  0.5000000022973883
  0.1660880371148869  0.3332301327579038  0.5000000000173436
  0.1661091518821462  0.4444746060303565  0.5000000000420890
  0.2492931683082630  0.5000654141032729  0.4999999976297009
  0.2493848305347315  0.6109838626410470  0.5000000024591045
  0.1660645534978025  0.6668526176292593  0.5000000020570774
  0.1665881264206171  0.7778691779360430  0.5000000017249978
  0.2502057966749800  0.8333934119725712  0.4999999993394009
  0.2502034603419808  0.9443572763702298  0.4999999993341467
  0.3336173281240416  0.0001715817504118  0.4999999977898929
  0.3326792147361458  0.1118068853288149  0.5000000039145474
  0.4139925144947511  0.1723420985460650  0.5000000046936506
  0.4119155749922130  0.2780154831723300  0.5000000028845056
  0.3345423353238914  0.3305647119319476  0.5000000002084410
  0.3345849310988664  0.4473298989590567  0.4999999963530996
  0.4119376235334871  0.4999348090999239  0.4999999993282025
  0.4140106185483320  0.6056136392787800  0.4999999999247582
  0.3326812458561474  0.6660453367301680  0.5000000019071389
  0.3336279629065472  0.7776760013414736  0.5000000013698253
  0.4171897190626351  0.8327539073115804  0.4999999985874744
  0.4171985623943378  0.9451991802714381  0.4999999977074306
  0.4999999999813610  0.0044572261711086  0.5000000003582074
  0.5000000000609196  0.1167981741016316  0.5000000034552353
  0.5860074857317393  0.1723420984311760  0.5000000019783289
  0.5880844251750820  0.2780154829919055  0.5000000030406229
  0.5880623765551577  0.4999348090990295  0.4999999976059039
  0.5859893812622007  0.6056136391084797  0.4999999955227364
  0.4999999998638952  0.6612301089094420  0.4999999980124014
  0.4999999998709665  0.7735719438936635  0.5000000006411303
  0.5828102806689767  0.8327539072243346  0.5000000025157969
  0.5828014375143110  0.9451991802109628  0.5000000022866741
  0.6663826718580835  0.0001715815483294  0.4999999994275394
  0.6673207854540132  0.1118068851294006  0.4999999989673016
  0.7506357735164315  0.1667940155326508  0.4999999975197261
  0.7507071069704325  0.2777211849358749  0.5000000022139069
  0.6654576647925495  0.3305647118351947  0.5000000043241465
  0.6654150689394867  0.4473298988853600  0.4999999996003336
  0.7507068316665244  0.5000654139478412  0.4999999968703147
  0.7506151693121255  0.6109838625144592  0.4999999958936517
  0.6673187539416400  0.6660453365708391  0.4999999951350035
  0.6663720368658761  0.7776760011995281  0.5000000016238731
  0.7497942030472574  0.8333934117874993  0.5000000001465189
  0.7497965396376938  0.9443572762029635  0.5000000005858208
  0.8334224648704037 -0.0001974415862010  0.4999999977406282
  0.8339216148190590  0.1108276533340107  0.4999999975157504
  0.9167780561119558  0.1663566401391570  0.4999999980748965
  0.9167668931021017  0.2777488417447604  0.5000000002831780
  0.8339119631133967  0.3332301326150239  0.4999999997641965
  0.8338908481911401  0.4444746059035353  0.4999999996839258
  0.9167705594934508  0.4998691019055797  0.4999999989715185
  0.9167768565619789  0.6112655695337599  0.4999999994266438
  0.8339354462767958  0.6668526175484248  0.4999999962508600
  0.8334118733845799  0.7778691778654917  0.4999999990547531
  0.9166264229655163  0.8332800262276464  0.4999999984750962
  0.9166251137344107  0.9443300623750642  0.4999999999410497
 
  0.00000000E+00  0.00000000E+00  0.00000000E+00
  0.00000000E+00  0.00000000E+00  0.00000000E+00
  0.00000000E+00  0.00000000E+00  0.00000000E+00
  0.00000000E+00  0.00000000E+00  0.00000000E+00
  0.00000000E+00  0.00000000E+00  0.00000000E+00
  0.00000000E+00  0.00000000E+00  0.00000000E+00
  0.00000000E+00  0.00000000E+00  0.00000000E+00
  0.00000000E+00  0.00000000E+00  0.00000000E+00
  0.00000000E+00  0.00000000E+00  0.00000000E+00
  0.00000000E+00  0.00000000E+00  0.00000000E+00
  0.00000000E+00  0.00000000E+00  0.00000000E+00
  0.00000000E+00  0.00000000E+00  0.00000000E+00
  0.00000000E+00  0.00000000E+00  0.00000000E+00
  0.00000000E+00  0.00000000E+00  0.00000000E+00
  0.00000000E+00  0.00000000E+00  0.00000000E+00
  0.00000000E+00  0.00000000E+00  0.00000000E+00
  0.00000000E+00  0.00000000E+00  0.00000000E+00
  0.00000000E+00  0.00000000E+00  0.00000000E+00
  0.00000000E+00  0.00000000E+00  0.00000000E+00
  0.00000000E+00  0.00000000E+00  0.00000000E+00
  0.00000000E+00  0.00000000E+00  0.00000000E+00
  0.00000000E+00  0.00000000E+00  0.00000000E+00
  0.00000000E+00  0.00000000E+00  0.00000000E+00
  0.00000000E+00  0.00000000E+00  0.00000000E+00
  0.00000000E+00  0.00000000E+00  0.00000000E+00
  0.00000000E+00  0.00000000E+00  0.00000000E+00
  0.00000000E+00  0.00000000E+00  0.00000000E+00
  0.00000000E+00  0.00000000E+00  0.00000000E+00
  0.00000000E+00  0.00000000E+00  0.00000000E+00
  0.00000000E+00  0.00000000E+00  0.00000000E+00
  0.00000000E+00  0.00000000E+00  0.00000000E+00
  0.00000000E+00  0.00000000E+00  0.00000000E+00
  0.00000000E+00  0.00000000E+00  0.00000000E+00
  0.00000000E+00  0.00000000E+00  0.00000000E+00
  0.00000000E+00  0.00000000E+00  0.00000000E+00
  0.00000000E+00  0.00000000E+00  0.00000000E+00
  0.00000000E+00  0.00000000E+00  0.00000000E+00
  0.00000000E+00  0.00000000E+00  0.00000000E+00
  0.00000000E+00  0.00000000E+00  0.00000000E+00
  0.00000000E+00  0.00000000E+00  0.00000000E+00
  0.00000000E+00  0.00000000E+00  0.00000000E+00
  0.00000000E+00  0.00000000E+00  0.00000000E+00
  0.00000000E+00  0.00000000E+00  0.00000000E+00
  0.00000000E+00  0.00000000E+00  0.00000000E+00
  0.00000000E+00  0.00000000E+00  0.00000000E+00
  0.00000000E+00  0.00000000E+00  0.00000000E+00
  0.00000000E+00  0.00000000E+00  0.00000000E+00
  0.00000000E+00  0.00000000E+00  0.00000000E+00
  0.00000000E+00  0.00000000E+00  0.00000000E+00
  0.00000000E+00  0.00000000E+00  0.00000000E+00
  0.00000000E+00  0.00000000E+00  0.00000000E+00
  0.00000000E+00  0.00000000E+00  0.00000000E+00
  0.00000000E+00  0.00000000E+00  0.00000000E+00
  0.00000000E+00  0.00000000E+00  0.00000000E+00
  0.00000000E+00  0.00000000E+00  0.00000000E+00
  0.00000000E+00  0.00000000E+00  0.00000000E+00
  0.00000000E+00  0.00000000E+00  0.00000000E+00
  0.00000000E+00  0.00000000E+00  0.00000000E+00
  0.00000000E+00  0.00000000E+00  0.00000000E+00
  0.00000000E+00  0.00000000E+00  0.00000000E+00
  0.00000000E+00  0.00000000E+00  0.00000000E+00
  0.00000000E+00  0.00000000E+00  0.00000000E+00
  0.00000000E+00  0.00000000E+00  0.00000000E+00
  0.00000000E+00  0.00000000E+00  0.00000000E+00
  0.00000000E+00  0.00000000E+00  0.00000000E+00
  0.00000000E+00  0.00000000E+00  0.00000000E+00
  0.00000000E+00  0.00000000E+00  0.00000000E+00
  0.00000000E+00  0.00000000E+00  0.00000000E+00
  0.00000000E+00  0.00000000E+00  0.00000000E+00
  0.00000000E+00  0.00000000E+00  0.00000000E+00
