Insert Title Here
1.000
   20.000000000     0.000000000     0.000000000
    0.000000000    20.000000000     0.000000000
    0.000000000     0.000000000    64.080000000
C  
48  
Selective Dynamics # constraints enabled
Cartesian # direct lattice
    9.999991000     9.999994000     0.000000000 T T T
    9.999991910     9.999995290     1.370318930 T T T
    9.999991000     9.999994000     2.670000000 T T T
    9.999991910     9.999995290     4.040318930 T T T
    9.999991000     9.999994000     5.340000000 T T T
    9.999991910     9.999995290     6.710318930 T T T
    9.999991000     9.999994000     8.010000000 T T T
    9.999991910     9.999995290     9.380318930 T T T
    9.999991000     9.999994000    10.680000000 T T T
    9.999991910     9.999995290    12.050318930 T T T
    9.999991000     9.999994000    13.350000000 T T T
    9.999991910     9.999995290    14.720318930 T T T
    9.999991000     9.999994000    16.020000000 T T T
    9.999991910     9.999995290    17.390318930 T T T
    9.999991000     9.999994000    18.690000000 T T T
    9.999991910     9.999995290    20.060318930 T T T
    9.999991000     9.999994000    21.360000000 T T T
    9.999991910     9.999995290    22.730318930 T T T
    9.999991000     9.999994000    24.030000000 T T T
    9.999991910     9.999995290    25.400318930 T T T
    9.999991000     9.999994000    26.700000000 T T T
    9.999991910     9.999995290    28.070318930 T T T
    9.999991000     9.999994000    29.370000000 T T T
    9.999991910     9.999995290    30.740318930 T T T
    9.999991000     9.999994000    32.040000000 T T T
    9.999991910     9.999995290    33.410318930 T T T
    9.999991000     9.999994000    34.710000000 T T T
    9.999991910     9.999995290    36.080318930 T T T
    9.999991000     9.999994000    37.380000000 T T T
    9.999991910     9.999995290    38.750318930 T T T
    9.999991000     9.999994000    40.050000000 T T T
    9.999991910     9.999995290    41.420318930 T T T
    9.999991000     9.999994000    42.720000000 T T T
    9.999991910     9.999995290    44.090318930 T T T
    9.999991000     9.999994000    45.390000000 T T T
    9.999991910     9.999995290    46.760318930 T T T
    9.999991000     9.999994000    48.060000000 T T T
    9.999991910     9.999995290    49.430318930 T T T
    9.999991000     9.999994000    50.730000000 T T T
    9.999991910     9.999995290    52.100318930 T T T
    9.999991000     9.999994000    53.400000000 T T T
    9.999991910     9.999995290    54.770318930 T T T
    9.999991000     9.999994000    56.070000000 T T T
    9.999991910     9.999995290    57.440318930 T T T
    9.999991000     9.999994000    58.740000000 T T T
    9.999991910     9.999995290    60.110318930 T T T
    9.999991000     9.999994000    61.410000000 T T T
    9.999991910     9.999995290    62.780318930 T T T
