generated by phonopy
   1.0
    20.0000000000000000    0.0000000000000000    0.0000000000000000
     0.0000000000000000   20.0000000000000000    0.0000000000000000
     0.0000000000000000    0.0000000000000000  320.3999999999999773
C
 240
Direct
  0.4999683996434528  0.4999997000000000  0.9999688496434528
  0.4999995500000000  0.4999997000000000  0.2000000000000000
  0.4999995500000000  0.4999997000000000  0.4000000000000000
  0.4999995500000000  0.4999997000000000  0.6000000000000001
  0.4999995500000000  0.4999997000000000  0.8000000000000000
  0.4999995955000001  0.4999997645000000  0.0042769005305868
  0.4999995955000001  0.4999997645000000  0.2042769005305868
  0.4999995955000001  0.4999997645000000  0.4042769005305868
  0.4999995955000001  0.4999997645000000  0.6042769005305868
  0.4999995955000001  0.4999997645000000  0.8042769005305868
  0.4999995500000000  0.4999997000000000  0.0083333333333333
  0.4999995500000000  0.4999997000000000  0.2083333333333334
  0.4999995500000000  0.4999997000000000  0.4083333333333333
  0.4999995500000000  0.4999997000000000  0.6083333333333334
  0.4999995500000000  0.4999997000000000  0.8083333333333335
  0.4999995955000001  0.4999997645000000  0.0126102338639201
  0.4999995955000001  0.4999997645000000  0.2126102338639201
  0.4999995955000001  0.4999997645000000  0.4126102338639201
  0.4999995955000001  0.4999997645000000  0.6126102338639201
  0.4999995955000001  0.4999997645000000  0.8126102338639202
  0.4999995500000000  0.4999997000000000  0.0166666666666667
  0.4999995500000000  0.4999997000000000  0.2166666666666667
  0.4999995500000000  0.4999997000000000  0.4166666666666668
  0.4999995500000000  0.4999997000000000  0.6166666666666667
  0.4999995500000000  0.4999997000000000  0.8166666666666667
  0.4999995955000001  0.4999997645000000  0.0209435671972534
  0.4999995955000001  0.4999997645000000  0.2209435671972535
  0.4999995955000001  0.4999997645000000  0.4209435671972535
  0.4999995955000001  0.4999997645000000  0.6209435671972535
  0.4999995955000001  0.4999997645000000  0.8209435671972534
  0.4999995500000000  0.4999997000000000  0.0250000000000000
  0.4999995500000000  0.4999997000000000  0.2250000000000000
  0.4999995500000000  0.4999997000000000  0.4250000000000001
  0.4999995500000000  0.4999997000000000  0.6250000000000000
  0.4999995500000000  0.4999997000000000  0.8250000000000001
  0.4999995955000001  0.4999997645000000  0.0292769005305868
  0.4999995955000001  0.4999997645000000  0.2292769005305868
  0.4999995955000001  0.4999997645000000  0.4292769005305868
  0.4999995955000001  0.4999997645000000  0.6292769005305868
  0.4999995955000001  0.4999997645000000  0.8292769005305868
  0.4999995500000000  0.4999997000000000  0.0333333333333333
  0.4999995500000000  0.4999997000000000  0.2333333333333334
  0.4999995500000000  0.4999997000000000  0.4333333333333334
  0.4999995500000000  0.4999997000000000  0.6333333333333333
  0.4999995500000000  0.4999997000000000  0.8333333333333336
  0.4999995955000001  0.4999997645000000  0.0376102338639201
  0.4999995955000001  0.4999997645000000  0.2376102338639201
  0.4999995955000001  0.4999997645000000  0.4376102338639201
  0.4999995955000001  0.4999997645000000  0.6376102338639201
  0.4999995955000001  0.4999997645000000  0.8376102338639202
  0.4999995500000000  0.4999997000000000  0.0416666666666667
  0.4999995500000000  0.4999997000000000  0.2416666666666667
  0.4999995500000000  0.4999997000000000  0.4416666666666667
  0.4999995500000000  0.4999997000000000  0.6416666666666667
  0.4999995500000000  0.4999997000000000  0.8416666666666666
  0.4999995955000001  0.4999997645000000  0.0459435671972534
  0.4999995955000001  0.4999997645000000  0.2459435671972535
  0.4999995955000001  0.4999997645000000  0.4459435671972535
  0.4999995955000001  0.4999997645000000  0.6459435671972535
  0.4999995955000001  0.4999997645000000  0.8459435671972534
  0.4999995500000000  0.4999997000000000  0.0500000000000000
  0.4999995500000000  0.4999997000000000  0.2500000000000000
  0.4999995500000000  0.4999997000000000  0.4500000000000001
  0.4999995500000000  0.4999997000000000  0.6500000000000000
  0.4999995500000000  0.4999997000000000  0.8500000000000002
  0.4999995955000001  0.4999997645000000  0.0542769005305868
  0.4999995955000001  0.4999997645000000  0.2542769005305868
  0.4999995955000001  0.4999997645000000  0.4542769005305868
  0.4999995955000001  0.4999997645000000  0.6542769005305868
  0.4999995955000001  0.4999997645000000  0.8542769005305867
  0.4999995500000000  0.4999997000000000  0.0583333333333333
  0.4999995500000000  0.4999997000000000  0.2583333333333334
  0.4999995500000000  0.4999997000000000  0.4583333333333334
  0.4999995500000000  0.4999997000000000  0.6583333333333333
  0.4999995500000000  0.4999997000000000  0.8583333333333334
  0.4999995955000001  0.4999997645000000  0.0626102338639201
  0.4999995955000001  0.4999997645000000  0.2626102338639201
  0.4999995955000001  0.4999997645000000  0.4626102338639202
  0.4999995955000001  0.4999997645000000  0.6626102338639202
  0.4999995955000001  0.4999997645000000  0.8626102338639203
  0.4999995500000000  0.4999997000000000  0.0666666666666667
  0.4999995500000000  0.4999997000000000  0.2666666666666667
  0.4999995500000000  0.4999997000000000  0.4666666666666667
  0.4999995500000000  0.4999997000000000  0.6666666666666667
  0.4999995500000000  0.4999997000000000  0.8666666666666668
  0.4999995955000001  0.4999997645000000  0.0709435671972534
  0.4999995955000001  0.4999997645000000  0.2709435671972535
  0.4999995955000001  0.4999997645000000  0.4709435671972535
  0.4999995955000001  0.4999997645000000  0.6709435671972535
  0.4999995955000001  0.4999997645000000  0.8709435671972533
  0.4999995500000000  0.4999997000000000  0.0750000000000000
  0.4999995500000000  0.4999997000000000  0.2750000000000000
  0.4999995500000000  0.4999997000000000  0.4750000000000000
  0.4999995500000000  0.4999997000000000  0.6750000000000000
  0.4999995500000000  0.4999997000000000  0.8750000000000000
  0.4999995955000001  0.4999997645000000  0.0792769005305868
  0.4999995955000001  0.4999997645000000  0.2792769005305868
  0.4999995955000001  0.4999997645000000  0.4792769005305868
  0.4999995955000001  0.4999997645000000  0.6792769005305868
  0.4999995955000001  0.4999997645000000  0.8792769005305869
  0.4999995500000000  0.4999997000000000  0.0833333333333333
  0.4999995500000000  0.4999997000000000  0.2833333333333333
  0.4999995500000000  0.4999997000000000  0.4833333333333333
  0.4999995500000000  0.4999997000000000  0.6833333333333333
  0.4999995500000000  0.4999997000000000  0.8833333333333333
  0.4999995955000001  0.4999997645000000  0.0876102338639201
  0.4999995955000001  0.4999997645000000  0.2876102338639201
  0.4999995955000001  0.4999997645000000  0.4876102338639201
  0.4999995955000001  0.4999997645000000  0.6876102338639201
  0.4999995955000001  0.4999997645000000  0.8876102338639202
  0.4999995500000000  0.4999997000000000  0.0916666666666667
  0.4999995500000000  0.4999997000000000  0.2916666666666667
  0.4999995500000000  0.4999997000000000  0.4916666666666667
  0.4999995500000000  0.4999997000000000  0.6916666666666668
  0.4999995500000000  0.4999997000000000  0.8916666666666666
  0.4999995955000001  0.4999997645000000  0.0959435671972534
  0.4999995955000001  0.4999997645000000  0.2959435671972535
  0.4999995955000001  0.4999997645000000  0.4959435671972535
  0.4999995955000001  0.4999997645000000  0.6959435671972535
  0.4999995955000001  0.4999997645000000  0.8959435671972534
  0.4999995500000000  0.4999997000000000  0.1000000000000000
  0.4999995500000000  0.4999997000000000  0.3000000000000000
  0.4999995500000000  0.4999997000000000  0.5000000000000000
  0.4999995500000000  0.4999997000000000  0.7000000000000001
  0.4999995500000000  0.4999997000000000  0.9000000000000001
  0.4999995955000001  0.4999997645000000  0.1042769005305868
  0.4999995955000001  0.4999997645000000  0.3042769005305868
  0.4999995955000001  0.4999997645000000  0.5042769005305868
  0.4999995955000001  0.4999997645000000  0.7042769005305868
  0.4999995955000001  0.4999997645000000  0.9042769005305868
  0.4999995500000000  0.4999997000000000  0.1083333333333334
  0.4999995500000000  0.4999997000000000  0.3083333333333333
  0.4999995500000000  0.4999997000000000  0.5083333333333333
  0.4999995500000000  0.4999997000000000  0.7083333333333334
  0.4999995500000000  0.4999997000000000  0.9083333333333335
  0.4999995955000001  0.4999997645000000  0.1126102338639201
  0.4999995955000001  0.4999997645000000  0.3126102338639201
  0.4999995955000001  0.4999997645000000  0.5126102338639201
  0.4999995955000001  0.4999997645000000  0.7126102338639201
  0.4999995955000001  0.4999997645000000  0.9126102338639200
  0.4999995500000000  0.4999997000000000  0.1166666666666667
  0.4999995500000000  0.4999997000000000  0.3166666666666667
  0.4999995500000000  0.4999997000000000  0.5166666666666667
  0.4999995500000000  0.4999997000000000  0.7166666666666668
  0.4999995500000000  0.4999997000000000  0.9166666666666667
  0.4999995955000001  0.4999997645000000  0.1209435671972534
  0.4999995955000001  0.4999997645000000  0.3209435671972535
  0.4999995955000001  0.4999997645000000  0.5209435671972534
  0.4999995955000001  0.4999997645000000  0.7209435671972535
  0.4999995955000001  0.4999997645000000  0.9209435671972535
  0.4999995500000000  0.4999997000000000  0.1250000000000000
  0.4999995500000000  0.4999997000000000  0.3250000000000000
  0.4999995500000000  0.4999997000000000  0.5250000000000000
  0.4999995500000000  0.4999997000000000  0.7250000000000001
  0.4999995500000000  0.4999997000000000  0.9250000000000000
  0.4999995955000001  0.4999997645000000  0.1292769005305868
  0.4999995955000001  0.4999997645000000  0.3292769005305868
  0.4999995955000001  0.4999997645000000  0.5292769005305867
  0.4999995955000001  0.4999997645000000  0.7292769005305868
  0.4999995955000001  0.4999997645000000  0.9292769005305869
  0.4999995500000000  0.4999997000000000  0.1333333333333333
  0.4999995500000000  0.4999997000000000  0.3333333333333333
  0.4999995500000000  0.4999997000000000  0.5333333333333333
  0.4999995500000000  0.4999997000000000  0.7333333333333334
  0.4999995500000000  0.4999997000000000  0.9333333333333335
  0.4999995955000001  0.4999997645000000  0.1376102338639201
  0.4999995955000001  0.4999997645000000  0.3376102338639201
  0.4999995955000001  0.4999997645000000  0.5376102338639202
  0.4999995955000001  0.4999997645000000  0.7376102338639202
  0.4999995955000001  0.4999997645000000  0.9376102338639202
  0.4999995500000000  0.4999997000000000  0.1416666666666667
  0.4999995500000000  0.4999997000000000  0.3416666666666667
  0.4999995500000000  0.4999997000000000  0.5416666666666667
  0.4999995500000000  0.4999997000000000  0.7416666666666667
  0.4999995500000000  0.4999997000000000  0.9416666666666667
  0.4999995955000001  0.4999997645000000  0.1459435671972534
  0.4999995955000001  0.4999997645000000  0.3459435671972535
  0.4999995955000001  0.4999997645000000  0.5459435671972535
  0.4999995955000001  0.4999997645000000  0.7459435671972535
  0.4999995955000001  0.4999997645000000  0.9459435671972535
  0.4999995500000000  0.4999997000000000  0.1500000000000000
  0.4999995500000000  0.4999997000000000  0.3500000000000000
  0.4999995500000000  0.4999997000000000  0.5500000000000000
  0.4999995500000000  0.4999997000000000  0.7500000000000000
  0.4999995500000000  0.4999997000000000  0.9500000000000001
  0.4999995955000001  0.4999997645000000  0.1542769005305868
  0.4999995955000001  0.4999997645000000  0.3542769005305868
  0.4999995955000001  0.4999997645000000  0.5542769005305868
  0.4999995955000001  0.4999997645000000  0.7542769005305868
  0.4999995955000001  0.4999997645000000  0.9542769005305868
  0.4999995500000000  0.4999997000000000  0.1583333333333333
  0.4999995500000000  0.4999997000000000  0.3583333333333333
  0.4999995500000000  0.4999997000000000  0.5583333333333333
  0.4999995500000000  0.4999997000000000  0.7583333333333333
  0.4999995500000000  0.4999997000000000  0.9583333333333335
  0.4999995955000001  0.4999997645000000  0.1626102338639201
  0.4999995955000001  0.4999997645000000  0.3626102338639201
  0.4999995955000001  0.4999997645000000  0.5626102338639202
  0.4999995955000001  0.4999997645000000  0.7626102338639202
  0.4999995955000001  0.4999997645000000  0.9626102338639202
  0.4999995500000000  0.4999997000000000  0.1666666666666667
  0.4999995500000000  0.4999997000000000  0.3666666666666667
  0.4999995500000000  0.4999997000000000  0.5666666666666667
  0.4999995500000000  0.4999997000000000  0.7666666666666666
  0.4999995500000000  0.4999997000000000  0.9666666666666667
  0.4999995955000001  0.4999997645000000  0.1709435671972535
  0.4999995955000001  0.4999997645000000  0.3709435671972535
  0.4999995955000001  0.4999997645000000  0.5709435671972535
  0.4999995955000001  0.4999997645000000  0.7709435671972535
  0.4999995955000001  0.4999997645000000  0.9709435671972534
  0.4999995500000000  0.4999997000000000  0.1750000000000000
  0.4999995500000000  0.4999997000000000  0.3750000000000000
  0.4999995500000000  0.4999997000000000  0.5750000000000001
  0.4999995500000000  0.4999997000000000  0.7750000000000000
  0.4999995500000000  0.4999997000000000  0.9750000000000001
  0.4999995955000001  0.4999997645000000  0.1792769005305868
  0.4999995955000001  0.4999997645000000  0.3792769005305868
  0.4999995955000001  0.4999997645000000  0.5792769005305868
  0.4999995955000001  0.4999997645000000  0.7792769005305868
  0.4999995955000001  0.4999997645000000  0.9792769005305868
  0.4999995500000000  0.4999997000000000  0.1833333333333333
  0.4999995500000000  0.4999997000000000  0.3833333333333334
  0.4999995500000000  0.4999997000000000  0.5833333333333334
  0.4999995500000000  0.4999997000000000  0.7833333333333334
  0.4999995500000000  0.4999997000000000  0.9833333333333334
  0.4999995955000001  0.4999997645000000  0.1876102338639201
  0.4999995955000001  0.4999997645000000  0.3876102338639201
  0.4999995955000001  0.4999997645000000  0.5876102338639201
  0.4999995955000001  0.4999997645000000  0.7876102338639202
  0.4999995955000001  0.4999997645000000  0.9876102338639202
  0.4999995500000000  0.4999997000000000  0.1916666666666667
  0.4999995500000000  0.4999997000000000  0.3916666666666667
  0.4999995500000000  0.4999997000000000  0.5916666666666667
  0.4999995500000000  0.4999997000000000  0.7916666666666666
  0.4999995500000000  0.4999997000000000  0.9916666666666666
  0.4999995955000001  0.4999997645000000  0.1959435671972534
  0.4999995955000001  0.4999997645000000  0.3959435671972535
  0.4999995955000001  0.4999997645000000  0.5959435671972535
  0.4999995955000001  0.4999997645000000  0.7959435671972535
  0.4999995955000001  0.4999997645000000  0.9959435671972534
