NumberOfAtoms    48           # Number of atoms
NumberOfSpecies  1           # Number of species

%block ChemicalSpeciesLabel
 1 6 C
%endblock ChemicalSpeciesLabel

#(3) Lattice, coordinates, k-sampling

LatticeConstant       1.000000000 Ang
%block LatticeVectors
   20.000000000     0.000000000     0.000000000
    0.000000000    20.000000000     0.000000000
    0.000000000     0.000000000    64.080000000
%endblock LatticeVectors

AtomicCoordinatesFormat Ang
%block AtomicCoordinatesAndAtomicSpecies
     9.999991000     9.999994000     0.000000000    1    1
     9.999991920     9.999995280     1.370318952    1    2
     9.999991000     9.999994000     2.670000021    1    3
     9.999991920     9.999995280     4.040318910    1    4
     9.999991000     9.999994000     5.339999979    1    5
     9.999991920     9.999995280     6.710318931    1    6
     9.999991000     9.999994000     8.010000000    1    7
     9.999991920     9.999995280     9.380318952    1    8
     9.999991000     9.999994000    10.680000021    1    9
     9.999991920     9.999995280    12.050318910    1   10
     9.999991000     9.999994000    13.349999979    1   11
     9.999991920     9.999995280    14.720318931    1   12
     9.999991000     9.999994000    16.020000000    1   13
     9.999991920     9.999995280    17.390318952    1   14
     9.999991000     9.999994000    18.690000021    1   15
     9.999991920     9.999995280    20.060318910    1   16
     9.999991000     9.999994000    21.359999979    1   17
     9.999991920     9.999995280    22.730318931    1   18
     9.999991000     9.999994000    24.030000000    1   19
     9.999991920     9.999995280    25.400318952    1   20
     9.999991000     9.999994000    26.700000021    1   21
     9.999991920     9.999995280    28.070318910    1   22
     9.999991000     9.999994000    29.369999979    1   23
     9.999991920     9.999995280    30.740318931    1   24
     9.999991000     9.999994000    32.040000000    1   25
     9.999991920     9.999995280    33.410318952    1   26
     9.999991000     9.999994000    34.710000021    1   27
     9.999991920     9.999995280    36.080318910    1   28
     9.999991000     9.999994000    37.379999979    1   29
     9.999991920     9.999995280    38.750318931    1   30
     9.999991000     9.999994000    40.050000000    1   31
     9.999991920     9.999995280    41.420318952    1   32
     9.999991000     9.999994000    42.720000021    1   33
     9.999991920     9.999995280    44.090318910    1   34
     9.999991000     9.999994000    45.389999979    1   35
     9.999991920     9.999995280    46.760318931    1   36
     9.999991000     9.999994000    48.060000000    1   37
     9.999991920     9.999995280    49.430318952    1   38
     9.999991000     9.999994000    50.730000021    1   39
     9.999991920     9.999995280    52.100318910    1   40
     9.999991000     9.999994000    53.399999979    1   41
     9.999991920     9.999995280    54.770318931    1   42
     9.999991000     9.999994000    56.070000000    1   43
     9.999991920     9.999995280    57.440318952    1   44
     9.999991000     9.999994000    58.740000021    1   45
     9.999991920     9.999995280    60.110318910    1   46
     9.999991000     9.999994000    61.409999979    1   47
     9.999991920     9.999995280    62.780318931    1   48
%endblock AtomicCoordinatesAndAtomicSpecies
