NumberOfAtoms 240

%block LatticeVectors
   37.7945227409938056    0.0000000000000000    0.0000000000000000
    0.0000000000000000   37.7945227409938056    0.0000000000000000
    0.0000000000000000    0.0000000000000000  605.4682543107206811
%endblock LatticeVectors

AtomicCoordinatesFormat  Fractional

LatticeConstant 1.0 Bohr

%block AtomicCoordinatesAndAtomicSpecies
   0.4999995500000000   0.4999996999999999   0.0000000000000000 1
   0.4999995500000000   0.4999996999999999   0.2000000000000000 1
   0.4999995500000000   0.4999996999999999   0.4000000000000000 1
   0.4999995500000000   0.4999996999999999   0.6000000000000001 1
   0.4999995500000000   0.4999996999999999   0.8000000000000000 1
   0.4999995960000000   0.4999997640000000   0.0042769005992509 1
   0.4999995960000000   0.4999997640000000   0.2042769005992510 1
   0.4999995960000000   0.4999997640000000   0.4042769005992510 1
   0.4999995960000000   0.4999997640000000   0.6042769005992510 1
   0.4999995960000000   0.4999997640000000   0.8042769005992509 1
   0.4999995500000000   0.4999996999999999   0.0083333333988764 1
   0.4999995500000000   0.4999996999999999   0.2083333333988764 1
   0.4999995500000000   0.4999996999999999   0.4083333333988765 1
   0.4999995500000000   0.4999996999999999   0.6083333333988765 1
   0.4999995500000000   0.4999996999999999   0.8083333333988764 1
   0.4999995960000000   0.4999997640000000   0.0126102338014981 1
   0.4999995960000000   0.4999997640000000   0.2126102338014981 1
   0.4999995960000000   0.4999997640000000   0.4126102338014981 1
   0.4999995960000000   0.4999997640000000   0.6126102338014981 1
   0.4999995960000000   0.4999997640000000   0.8126102338014981 1
   0.4999995500000000   0.4999996999999999   0.0166666666011236 1
   0.4999995500000000   0.4999996999999999   0.2166666666011236 1
   0.4999995500000000   0.4999996999999999   0.4166666666011236 1
   0.4999995500000000   0.4999996999999999   0.6166666666011236 1
   0.4999995500000000   0.4999996999999999   0.8166666666011237 1
   0.4999995960000000   0.4999997640000000   0.0209435672003745 1
   0.4999995960000000   0.4999997640000000   0.2209435672003745 1
   0.4999995960000000   0.4999997640000000   0.4209435672003745 1
   0.4999995960000000   0.4999997640000000   0.6209435672003746 1
   0.4999995960000000   0.4999997640000000   0.8209435672003746 1
   0.4999995500000000   0.4999996999999999   0.0250000000000000 1
   0.4999995500000000   0.4999996999999999   0.2250000000000000 1
   0.4999995500000000   0.4999996999999999   0.4250000000000000 1
   0.4999995500000000   0.4999996999999999   0.6250000000000000 1
   0.4999995500000000   0.4999996999999999   0.8250000000000001 1
   0.4999995960000000   0.4999997640000000   0.0292769005992509 1
   0.4999995960000000   0.4999997640000000   0.2292769005992510 1
   0.4999995960000000   0.4999997640000000   0.4292769005992509 1
   0.4999995960000000   0.4999997640000000   0.6292769005992510 1
   0.4999995960000000   0.4999997640000000   0.8292769005992510 1
   0.4999995500000000   0.4999996999999999   0.0333333333988764 1
   0.4999995500000000   0.4999996999999999   0.2333333333988764 1
   0.4999995500000000   0.4999996999999999   0.4333333333988765 1
   0.4999995500000000   0.4999996999999999   0.6333333333988764 1
   0.4999995500000000   0.4999996999999999   0.8333333333988764 1
   0.4999995960000000   0.4999997640000000   0.0376102338014981 1
   0.4999995960000000   0.4999997640000000   0.2376102338014981 1
   0.4999995960000000   0.4999997640000000   0.4376102338014982 1
   0.4999995960000000   0.4999997640000000   0.6376102338014982 1
   0.4999995960000000   0.4999997640000000   0.8376102338014981 1
   0.4999995500000000   0.4999996999999999   0.0416666666011236 1
   0.4999995500000000   0.4999996999999999   0.2416666666011236 1
   0.4999995500000000   0.4999996999999999   0.4416666666011236 1
   0.4999995500000000   0.4999996999999999   0.6416666666011236 1
   0.4999995500000000   0.4999996999999999   0.8416666666011237 1
   0.4999995960000000   0.4999997640000000   0.0459435672003745 1
   0.4999995960000000   0.4999997640000000   0.2459435672003745 1
   0.4999995960000000   0.4999997640000000   0.4459435672003745 1
   0.4999995960000000   0.4999997640000000   0.6459435672003746 1
   0.4999995960000000   0.4999997640000000   0.8459435672003747 1
   0.4999995500000000   0.4999996999999999   0.0500000000000000 1
   0.4999995500000000   0.4999996999999999   0.2500000000000000 1
   0.4999995500000000   0.4999996999999999   0.4500000000000000 1
   0.4999995500000000   0.4999996999999999   0.6500000000000000 1
   0.4999995500000000   0.4999996999999999   0.8500000000000001 1
   0.4999995960000000   0.4999997640000000   0.0542769005992510 1
   0.4999995960000000   0.4999997640000000   0.2542769005992510 1
   0.4999995960000000   0.4999997640000000   0.4542769005992510 1
   0.4999995960000000   0.4999997640000000   0.6542769005992510 1
   0.4999995960000000   0.4999997640000000   0.8542769005992510 1
   0.4999995500000000   0.4999996999999999   0.0583333333988764 1
   0.4999995500000000   0.4999996999999999   0.2583333333988764 1
   0.4999995500000000   0.4999996999999999   0.4583333333988764 1
   0.4999995500000000   0.4999996999999999   0.6583333333988765 1
   0.4999995500000000   0.4999996999999999   0.8583333333988764 1
   0.4999995960000000   0.4999997640000000   0.0626102338014981 1
   0.4999995960000000   0.4999997640000000   0.2626102338014981 1
   0.4999995960000000   0.4999997640000000   0.4626102338014982 1
   0.4999995960000000   0.4999997640000000   0.6626102338014982 1
   0.4999995960000000   0.4999997640000000   0.8626102338014981 1
   0.4999995500000000   0.4999996999999999   0.0666666666011236 1
   0.4999995500000000   0.4999996999999999   0.2666666666011236 1
   0.4999995500000000   0.4999996999999999   0.4666666666011236 1
   0.4999995500000000   0.4999996999999999   0.6666666666011236 1
   0.4999995500000000   0.4999996999999999   0.8666666666011237 1
   0.4999995960000000   0.4999997640000000   0.0709435672003745 1
   0.4999995960000000   0.4999997640000000   0.2709435672003745 1
   0.4999995960000000   0.4999997640000000   0.4709435672003746 1
   0.4999995960000000   0.4999997640000000   0.6709435672003745 1
   0.4999995960000000   0.4999997640000000   0.8709435672003747 1
   0.4999995500000000   0.4999996999999999   0.0750000000000000 1
   0.4999995500000000   0.4999996999999999   0.2750000000000000 1
   0.4999995500000000   0.4999996999999999   0.4750000000000000 1
   0.4999995500000000   0.4999996999999999   0.6750000000000000 1
   0.4999995500000000   0.4999996999999999   0.8750000000000000 1
   0.4999995960000000   0.4999997640000000   0.0792769005992510 1
   0.4999995960000000   0.4999997640000000   0.2792769005992510 1
   0.4999995960000000   0.4999997640000000   0.4792769005992510 1
   0.4999995960000000   0.4999997640000000   0.6792769005992509 1
   0.4999995960000000   0.4999997640000000   0.8792769005992510 1
   0.4999995500000000   0.4999996999999999   0.0833333333988764 1
   0.4999995500000000   0.4999996999999999   0.2833333333988765 1
   0.4999995500000000   0.4999996999999999   0.4833333333988765 1
   0.4999995500000000   0.4999996999999999   0.6833333333988765 1
   0.4999995500000000   0.4999996999999999   0.8833333333988764 1
   0.4999995960000000   0.4999997640000000   0.0876102338014981 1
   0.4999995960000000   0.4999997640000000   0.2876102338014981 1
   0.4999995960000000   0.4999997640000000   0.4876102338014982 1
   0.4999995960000000   0.4999997640000000   0.6876102338014982 1
   0.4999995960000000   0.4999997640000000   0.8876102338014982 1
   0.4999995500000000   0.4999996999999999   0.0916666666011236 1
   0.4999995500000000   0.4999996999999999   0.2916666666011236 1
   0.4999995500000000   0.4999996999999999   0.4916666666011236 1
   0.4999995500000000   0.4999996999999999   0.6916666666011236 1
   0.4999995500000000   0.4999996999999999   0.8916666666011237 1
   0.4999995960000000   0.4999997640000000   0.0959435672003746 1
   0.4999995960000000   0.4999997640000000   0.2959435672003746 1
   0.4999995960000000   0.4999997640000000   0.4959435672003745 1
   0.4999995960000000   0.4999997640000000   0.6959435672003745 1
   0.4999995960000000   0.4999997640000000   0.8959435672003746 1
   0.4999995500000000   0.4999996999999999   0.1000000000000000 1
   0.4999995500000000   0.4999996999999999   0.3000000000000000 1
   0.4999995500000000   0.4999996999999999   0.5000000000000000 1
   0.4999995500000000   0.4999996999999999   0.7000000000000001 1
   0.4999995500000000   0.4999996999999999   0.9000000000000000 1
   0.4999995960000000   0.4999997640000000   0.1042769005992509 1
   0.4999995960000000   0.4999997640000000   0.3042769005992509 1
   0.4999995960000000   0.4999997640000000   0.5042769005992510 1
   0.4999995960000000   0.4999997640000000   0.7042769005992510 1
   0.4999995960000000   0.4999997640000000   0.9042769005992510 1
   0.4999995500000000   0.4999996999999999   0.1083333333988764 1
   0.4999995500000000   0.4999996999999999   0.3083333333988765 1
   0.4999995500000000   0.4999996999999999   0.5083333333988764 1
   0.4999995500000000   0.4999996999999999   0.7083333333988765 1
   0.4999995500000000   0.4999996999999999   0.9083333333988763 1
   0.4999995960000000   0.4999997640000000   0.1126102338014981 1
   0.4999995960000000   0.4999997640000000   0.3126102338014982 1
   0.4999995960000000   0.4999997640000000   0.5126102338014982 1
   0.4999995960000000   0.4999997640000000   0.7126102338014982 1
   0.4999995960000000   0.4999997640000000   0.9126102338014981 1
   0.4999995500000000   0.4999996999999999   0.1166666666011236 1
   0.4999995500000000   0.4999996999999999   0.3166666666011236 1
   0.4999995500000000   0.4999996999999999   0.5166666666011236 1
   0.4999995500000000   0.4999996999999999   0.7166666666011237 1
   0.4999995500000000   0.4999996999999999   0.9166666666011237 1
   0.4999995960000000   0.4999997640000000   0.1209435672003746 1
   0.4999995960000000   0.4999997640000000   0.3209435672003746 1
   0.4999995960000000   0.4999997640000000   0.5209435672003746 1
   0.4999995960000000   0.4999997640000000   0.7209435672003747 1
   0.4999995960000000   0.4999997640000000   0.9209435672003746 1
   0.4999995500000000   0.4999996999999999   0.1250000000000000 1
   0.4999995500000000   0.4999996999999999   0.3250000000000000 1
   0.4999995500000000   0.4999996999999999   0.5250000000000000 1
   0.4999995500000000   0.4999996999999999   0.7250000000000001 1
   0.4999995500000000   0.4999996999999999   0.9250000000000000 1
   0.4999995960000000   0.4999997640000000   0.1292769005992510 1
   0.4999995960000000   0.4999997640000000   0.3292769005992510 1
   0.4999995960000000   0.4999997640000000   0.5292769005992509 1
   0.4999995960000000   0.4999997640000000   0.7292769005992510 1
   0.4999995960000000   0.4999997640000000   0.9292769005992509 1
   0.4999995500000000   0.4999996999999999   0.1333333333988764 1
   0.4999995500000000   0.4999996999999999   0.3333333333988764 1
   0.4999995500000000   0.4999996999999999   0.5333333333988765 1
   0.4999995500000000   0.4999996999999999   0.7333333333988765 1
   0.4999995500000000   0.4999996999999999   0.9333333333988764 1
   0.4999995960000000   0.4999997640000000   0.1376102338014981 1
   0.4999995960000000   0.4999997640000000   0.3376102338014981 1
   0.4999995960000000   0.4999997640000000   0.5376102338014981 1
   0.4999995960000000   0.4999997640000000   0.7376102338014981 1
   0.4999995960000000   0.4999997640000000   0.9376102338014981 1
   0.4999995500000000   0.4999996999999999   0.1416666666011236 1
   0.4999995500000000   0.4999996999999999   0.3416666666011237 1
   0.4999995500000000   0.4999996999999999   0.5416666666011237 1
   0.4999995500000000   0.4999996999999999   0.7416666666011237 1
   0.4999995500000000   0.4999996999999999   0.9416666666011237 1
   0.4999995960000000   0.4999997640000000   0.1459435672003745 1
   0.4999995960000000   0.4999997640000000   0.3459435672003746 1
   0.4999995960000000   0.4999997640000000   0.5459435672003745 1
   0.4999995960000000   0.4999997640000000   0.7459435672003746 1
   0.4999995960000000   0.4999997640000000   0.9459435672003746 1
   0.4999995500000000   0.4999996999999999   0.1500000000000000 1
   0.4999995500000000   0.4999996999999999   0.3500000000000000 1
   0.4999995500000000   0.4999996999999999   0.5500000000000000 1
   0.4999995500000000   0.4999996999999999   0.7500000000000000 1
   0.4999995500000000   0.4999996999999999   0.9500000000000001 1
   0.4999995960000000   0.4999997640000000   0.1542769005992509 1
   0.4999995960000000   0.4999997640000000   0.3542769005992510 1
   0.4999995960000000   0.4999997640000000   0.5542769005992509 1
   0.4999995960000000   0.4999997640000000   0.7542769005992510 1
   0.4999995960000000   0.4999997640000000   0.9542769005992510 1
   0.4999995500000000   0.4999996999999999   0.1583333333988765 1
   0.4999995500000000   0.4999996999999999   0.3583333333988765 1
   0.4999995500000000   0.4999996999999999   0.5583333333988765 1
   0.4999995500000000   0.4999996999999999   0.7583333333988764 1
   0.4999995500000000   0.4999996999999999   0.9583333333988766 1
   0.4999995960000000   0.4999997640000000   0.1626102338014982 1
   0.4999995960000000   0.4999997640000000   0.3626102338014982 1
   0.4999995960000000   0.4999997640000000   0.5626102338014982 1
   0.4999995960000000   0.4999997640000000   0.7626102338014982 1
   0.4999995960000000   0.4999997640000000   0.9626102338014981 1
   0.4999995500000000   0.4999996999999999   0.1666666666011236 1
   0.4999995500000000   0.4999996999999999   0.3666666666011236 1
   0.4999995500000000   0.4999996999999999   0.5666666666011236 1
   0.4999995500000000   0.4999996999999999   0.7666666666011237 1
   0.4999995500000000   0.4999996999999999   0.9666666666011237 1
   0.4999995960000000   0.4999997640000000   0.1709435672003745 1
   0.4999995960000000   0.4999997640000000   0.3709435672003745 1
   0.4999995960000000   0.4999997640000000   0.5709435672003745 1
   0.4999995960000000   0.4999997640000000   0.7709435672003746 1
   0.4999995960000000   0.4999997640000000   0.9709435672003747 1
   0.4999995500000000   0.4999996999999999   0.1750000000000000 1
   0.4999995500000000   0.4999996999999999   0.3750000000000000 1
   0.4999995500000000   0.4999996999999999   0.5750000000000001 1
   0.4999995500000000   0.4999996999999999   0.7750000000000000 1
   0.4999995500000000   0.4999996999999999   0.9750000000000001 1
   0.4999995960000000   0.4999997640000000   0.1792769005992509 1
   0.4999995960000000   0.4999997640000000   0.3792769005992510 1
   0.4999995960000000   0.4999997640000000   0.5792769005992510 1
   0.4999995960000000   0.4999997640000000   0.7792769005992510 1
   0.4999995960000000   0.4999997640000000   0.9792769005992510 1
   0.4999995500000000   0.4999996999999999   0.1833333333988764 1
   0.4999995500000000   0.4999996999999999   0.3833333333988764 1
   0.4999995500000000   0.4999996999999999   0.5833333333988765 1
   0.4999995500000000   0.4999996999999999   0.7833333333988765 1
   0.4999995500000000   0.4999996999999999   0.9833333333988765 1
   0.4999995960000000   0.4999997640000000   0.1876102338014982 1
   0.4999995960000000   0.4999997640000000   0.3876102338014982 1
   0.4999995960000000   0.4999997640000000   0.5876102338014982 1
   0.4999995960000000   0.4999997640000000   0.7876102338014982 1
   0.4999995960000000   0.4999997640000000   0.9876102338014981 1
   0.4999995500000000   0.4999996999999999   0.1916666666011236 1
   0.4999995500000000   0.4999996999999999   0.3916666666011236 1
   0.4999995500000000   0.4999996999999999   0.5916666666011235 1
   0.4999995500000000   0.4999996999999999   0.7916666666011236 1
   0.4999995500000000   0.4999996999999999   0.9916666666011237 1
   0.4999995960000000   0.4999997640000000   0.1959435672003746 1
   0.4999995960000000   0.4999997640000000   0.3959435672003746 1
   0.4999995960000000   0.4999997640000000   0.5959435672003747 1
   0.4999995960000000   0.4999997640000000   0.7959435672003746 1
   0.4999995960000000   0.4999997640000000   0.9959435672003747 1
%endblock AtomicCoordinatesAndAtomicSpecies
