NumberOfAtoms    2           # Number of atoms
NumberOfSpecies  1           # Number of species

%block ChemicalSpeciesLabel
 1 6 C
%endblock ChemicalSpeciesLabel

#(3) Lattice, coordinates, k-sampling

LatticeConstant       1.000000000 Ang
%block LatticeVectors
    2.461307527     0.000000000    -0.000000000
   -1.230653764     2.131554845    -0.000000000
    0.000000000     0.000000000    15.000000000
%endblock LatticeVectors

AtomicCoordinatesFormat Ang
%block AtomicCoordinatesAndAtomicSpecies
    1.230661757     0.710529285   -0.000000000    1    1
    0.000006994     1.421048580   -0.000000000    1    2
%endblock AtomicCoordinatesAndAtomicSpecies
